Read MPS format model from file dat/rmp/DER_48_16384_10.mps
Reading time = 0.56 seconds
: 16432 rows, 37008 columns, 1608154 nonzeros
Gurobi Optimizer version 9.0.0 build v9.0.0rc2 (linux64)
Optimize a model with 16432 rows, 37008 columns and 1608154 nonzeros
Model fingerprint: 0x8e0240f0
Coefficient statistics:
  Matrix range     [5e-05, 1e+01]
  Objective range  [3e-01, 1e+03]
  Bounds range     [1e+05, 1e+05]
  RHS range        [1e+00, 1e+00]
Ordering time: 0.02s

Barrier statistics:
 AA' NZ     : 7.373e+05
 Factor NZ  : 9.195e+05 (roughly 30 MBytes of memory)
 Factor Ops : 5.383e+07 (less than 1 second per iteration)
 Threads    : 1

                  Objective                Residual
Iter       Primal          Dual         Primal    Dual     Compl     Time
   0   3.57424362e+09 -2.42360804e+08  6.63e+07 1.79e-02  1.79e+06     0s
   1   9.74307556e+07 -4.91668474e+07  1.75e+06 3.64e-12  4.84e+04     0s
   2   6.65342413e+06 -2.01757212e+07  1.18e+05 1.82e-12  3.71e+03     1s
   3   3.06099872e+05 -9.85973774e+06  4.43e+03 3.64e-12  3.69e+02     1s
   4   5.03061380e+04 -8.17775837e+05  8.53e-10 3.64e-12  2.34e+01     1s
   5   4.98385093e+04  3.47195281e+04  8.46e-10 3.64e-12  4.08e-01     1s
   6   4.94930738e+04  4.65482645e+04  8.50e-10 9.09e-12  7.95e-02     1s
   7   4.91412867e+04  4.81959698e+04  1.84e-09 5.46e-12  2.55e-02     1s
   8   4.89517204e+04  4.84230637e+04  1.20e-09 3.64e-12  1.43e-02     1s
   9   4.88171093e+04  4.85712360e+04  1.88e-09 1.82e-12  6.64e-03     1s
  10   4.87368957e+04  4.86551469e+04  2.89e-09 5.46e-12  2.21e-03     1s
  11   4.87239468e+04  4.86724472e+04  2.11e-09 3.64e-12  1.39e-03     1s
  12   4.87161342e+04  4.86803250e+04  5.63e-09 2.73e-12  9.66e-04     2s
  13   4.87068323e+04  4.86904482e+04  1.18e-08 2.73e-12  4.42e-04     2s
  14   4.87058088e+04  4.86931169e+04  1.06e-08 1.82e-12  3.43e-04     2s
  15   4.87028281e+04  4.86963413e+04  5.24e-09 1.82e-12  1.75e-04     2s
  16   4.87006326e+04  4.86988437e+04  1.02e-08 3.64e-12  4.83e-05     2s
  17   4.87001968e+04  4.86996399e+04  1.43e-08 1.82e-12  1.50e-05     2s
  18   4.87000494e+04  4.86997105e+04  5.93e-09 1.82e-12  9.14e-06     2s
  19   4.86999598e+04  4.86997629e+04  6.67e-09 1.82e-12  5.31e-06     2s
  20   4.86998658e+04  4.86998232e+04  1.73e-08 1.82e-12  1.15e-06     2s
  21   4.86998551e+04  4.86998334e+04  3.67e-08 1.82e-12  5.85e-07     3s
  22   4.86998415e+04  4.86998369e+04  6.08e-08 1.82e-12  1.24e-07     3s
  23   4.86998383e+04  4.86998373e+04  4.01e-06 1.82e-12  2.74e-08     3s
  24   4.86998374e+04  4.86998373e+04  1.33e-06 1.82e-12  1.31e-09     3s
  25   4.86998374e+04  4.86998374e+04  3.39e-08 3.64e-12  8.34e-14     3s

Barrier solved model in 25 iterations and 2.85 seconds
Optimal objective 4.86998374e+04

Solve time: 2.854702055
Barrier iterations: 25
